0 55818 
1 55714 
2 54220 
3 54178 
4 53988 
5 53722 
6 53262 
7 52688 
8 52680 
9 52672 
10 51978 
11 50496 
12 49090 
13 47406 
14 46904 
15 46580 
16 46228 
17 46038 
18 45902 
19 45884 
20 44780 
21 44738 
22 43330 
23 42950 
24 42666 
25 41792 
26 40726 
27 40362 
28 38842 
29 38530 
30 37158 
31 37092 
32 35612 
33 33816 
34 33140 
35 33086 
36 31862 
37 30748 
38 30304 
39 30298 
40 29504 
41 28838 
42 28316 
43 28284 
44 27874 
45 27328 
46 26416 
47 25420 
48 24780 
49 24780 
50 23844 
51 23678 
52 23132 
53 22540 
54 21932 
55 21824 
56 21568 
57 19472 
58 19398 
59 18774 
60 18166 
61 17692 
62 17688 
63 17286 
64 16084 
65 14340 
66 13292 
67 13214 
68 13214 

